c Random Network
p max    10      20
n         1  s
n        10  t
a       4       2      27
a       4       3      24
a       8      10      30
a       2      10      10
a       2       3      43
a       2       1      13
a       1       6      25
a       9       2      43
a      10       2      26
a       3       8      33
a       5       8      27
a       1       3      38
a       4       7       1
a      10       8      19
a       9       4      29
a       3       6      34
a       1       2      13
a       3       1      28
a       4       9      23
a       9       3      46
